14° run output:
{
    "Function": "ClusterB500.tsp",
    "Problem dimension": [
        324,
        427,
        214,
        114,
        118,
        422,
        177,
        248,
        300,
        216,
        182,
        472,
        348,
        377,
        454,
        380,
        226,
        276,
        212,
        461,
        445,
        235,
        438,
        143,
        201,
        433,
        119,
        55,
        469,
        292,
        98,
        107,
        187,
        475,
        74,
        28,
        129,
        209,
        127,
        331,
        424,
        341,
        440,
        406,
        436,
        490,
        304,
        84,
        255,
        413,
        169,
        222,
        326,
        97,
        286,
        362,
        135,
        167,
        218,
        291,
        395,
        330,
        185,
        328,
        385,
        265,
        419,
        391,
        354,
        160,
        146,
        241,
        474,
        372,
        336,
        46,
        159,
        190,
        360,
        487,
        489,
        358,
        148,
        242,
        124,
        123,
        295,
        418,
        315,
        492,
        446,
        88,
        410,
        285,
        85,
        451,
        69,
        71,
        476,
        115,
        175,
        233,
        68,
        158,
        428,
        400,
        73,
        65,
        99,
        471,
        199,
        296,
        240,
        340,
        311,
        317,
        232,
        393,
        258,
        195,
        368,
        206,
        13,
        3,
        434,
        274,
        244,
        249,
        70,
        31,
        63,
        477,
        484,
        473,
        346,
        58,
        378,
        215,
        478,
        173,
        293,
        37,
        290,
        109,
        225,
        323,
        60,
        302,
        125,
        137,
        220,
        309,
        49,
        280,
        386,
        250,
        246,
        51,
        417,
        272,
        342,
        154,
        370,
        6,
        482,
        430,
        447,
        34,
        462,
        322,
        116,
        289,
        363,
        113,
        165,
        147,
        398,
        357,
        277,
        365,
        76,
        92,
        45,
        54,
        96,
        111,
        318,
        153,
        299,
        334,
        281,
        53,
        273,
        128,
        485,
        271,
        205,
        78,
        266,
        431,
        81,
        381,
        39,
        278,
        202,
        200,
        9,
        350,
        15,
        384,
        145,
        449,
        142,
        351,
        390,
        217,
        307,
        435,
        356,
        455,
        86,
        117,
        329,
        204,
        268,
        448,
        379,
        404,
        210,
        421,
        333,
        186,
        253,
        198,
        267,
        308,
        189,
        27,
        236,
        183,
        174,
        16,
        408,
        429,
        91,
        140,
        10,
        181,
        207,
        245,
        310,
        66,
        279,
        423,
        353,
        221,
        264,
        305,
        283,
        12,
        8,
        231,
        269,
        254,
        412,
        465,
        23,
        416,
        32,
        325,
        67,
        382,
        275,
        79,
        40,
        316,
        261,
        371,
        361,
        443,
        11,
        312,
        297,
        18,
        411,
        403,
        172,
        17,
        466,
        319,
        344,
        335,
        338,
        376,
        35,
        488,
        397,
        122,
        230,
        132,
        262,
        251,
        178,
        7,
        188,
        104,
        459,
        56,
        144,
        437,
        252,
        483,
        106,
        48,
        263,
        498,
        383,
        343,
        139,
        87,
        470,
        29,
        499,
        83,
        112,
        150,
        192,
        100,
        257,
        77,
        166,
        30,
        211,
        101,
        464,
        25,
        373,
        355,
        72,
        426,
        179,
        43,
        208,
        303,
        176,
        457,
        138,
        388,
        409,
        2,
        95,
        313,
        238,
        288,
        270,
        80,
        458,
        259,
        399,
        110,
        161,
        374,
        387,
        163,
        321,
        282,
        332,
        59,
        26,
        22,
        157,
        149,
        151,
        152,
        468,
        191,
        495,
        227,
        497,
        301,
        90,
        486,
        463,
        33,
        14,
        345,
        5,
        213,
        401,
        4,
        491,
        155,
        441,
        479,
        407,
        133,
        196,
        184,
        82,
        456,
        493,
        141,
        229,
        89,
        219,
        108,
        375,
        120,
        103,
        284,
        134,
        42,
        260,
        394,
        306,
        460,
        102,
        425,
        439,
        105,
        193,
        61,
        327,
        359,
        480,
        467,
        75,
        294,
        496,
        162,
        19,
        314,
        396,
        352,
        41,
        21,
        93,
        453,
        57,
        136,
        131,
        47,
        171,
        450,
        337,
        367,
        164,
        298,
        38,
        339,
        126,
        402,
        156,
        130,
        442,
        239,
        415,
        62,
        180,
        389,
        36,
        203,
        197,
        237,
        432,
        287,
        50,
        494,
        414,
        20,
        94,
        347,
        420,
        392,
        121,
        256,
        247,
        224,
        194,
        170,
        44,
        452,
        168,
        234,
        444,
        223,
        405,
        369,
        349,
        1,
        364,
        243,
        0,
        228,
        64,
        320,
        481,
        366,
        24,
        52
    ],
    "Global Optimum": 0,
    "Algorithm": "Genetic algorithm",
    "Parameters": {
        "population": 30,
        "offspring": 30,
        "mutation probability": 0.002,
        "crossover probability": 0.9
    },
    "Fitness": 629885,
    "Solution": [
        324,
        427,
        214,
        114,
        118,
        422,
        177,
        248,
        300,
        216,
        182,
        472,
        348,
        377,
        454,
        380,
        226,
        276,
        212,
        461,
        445,
        235,
        438,
        143,
        201,
        433,
        119,
        55,
        469,
        292,
        98,
        107,
        187,
        475,
        74,
        28,
        129,
        209,
        127,
        331,
        424,
        341,
        440,
        406,
        436,
        490,
        304,
        84,
        255,
        413,
        169,
        222,
        326,
        97,
        286,
        362,
        135,
        167,
        218,
        291,
        395,
        330,
        185,
        328,
        385,
        265,
        419,
        391,
        354,
        160,
        146,
        241,
        474,
        372,
        336,
        46,
        159,
        190,
        360,
        487,
        489,
        358,
        148,
        242,
        124,
        123,
        295,
        418,
        315,
        492,
        446,
        88,
        410,
        285,
        85,
        451,
        69,
        71,
        476,
        115,
        175,
        233,
        68,
        158,
        428,
        400,
        73,
        65,
        99,
        471,
        199,
        296,
        240,
        340,
        311,
        317,
        232,
        393,
        258,
        195,
        368,
        206,
        13,
        3,
        434,
        274,
        244,
        249,
        70,
        31,
        63,
        477,
        484,
        473,
        346,
        58,
        378,
        215,
        478,
        173,
        293,
        37,
        290,
        109,
        225,
        323,
        60,
        302,
        125,
        137,
        220,
        309,
        49,
        280,
        386,
        250,
        246,
        51,
        417,
        272,
        342,
        154,
        370,
        6,
        482,
        430,
        447,
        34,
        462,
        322,
        116,
        289,
        363,
        113,
        165,
        147,
        398,
        357,
        277,
        365,
        76,
        92,
        45,
        54,
        96,
        111,
        318,
        153,
        299,
        334,
        281,
        53,
        273,
        128,
        485,
        271,
        205,
        78,
        266,
        431,
        81,
        381,
        39,
        278,
        202,
        200,
        9,
        350,
        15,
        384,
        145,
        449,
        142,
        351,
        390,
        217,
        307,
        435,
        356,
        455,
        86,
        117,
        329,
        204,
        268,
        448,
        379,
        404,
        210,
        421,
        333,
        186,
        253,
        198,
        267,
        308,
        189,
        27,
        236,
        183,
        174,
        16,
        408,
        429,
        91,
        140,
        10,
        181,
        207,
        245,
        310,
        66,
        279,
        423,
        353,
        221,
        264,
        305,
        283,
        12,
        8,
        231,
        269,
        254,
        412,
        465,
        23,
        416,
        32,
        325,
        67,
        382,
        275,
        79,
        40,
        316,
        261,
        371,
        361,
        443,
        11,
        312,
        297,
        18,
        411,
        403,
        172,
        17,
        466,
        319,
        344,
        335,
        338,
        376,
        35,
        488,
        397,
        122,
        230,
        132,
        262,
        251,
        178,
        7,
        188,
        104,
        459,
        56,
        144,
        437,
        252,
        483,
        106,
        48,
        263,
        498,
        383,
        343,
        139,
        87,
        470,
        29,
        499,
        83,
        112,
        150,
        192,
        100,
        257,
        77,
        166,
        30,
        211,
        101,
        464,
        25,
        373,
        355,
        72,
        426,
        179,
        43,
        208,
        303,
        176,
        457,
        138,
        388,
        409,
        2,
        95,
        313,
        238,
        288,
        270,
        80,
        458,
        259,
        399,
        110,
        161,
        374,
        387,
        163,
        321,
        282,
        332,
        59,
        26,
        22,
        157,
        149,
        151,
        152,
        468,
        191,
        495,
        227,
        497,
        301,
        90,
        486,
        463,
        33,
        14,
        345,
        5,
        213,
        401,
        4,
        491,
        155,
        441,
        479,
        407,
        133,
        196,
        184,
        82,
        456,
        493,
        141,
        229,
        89,
        219,
        108,
        375,
        120,
        103,
        284,
        134,
        42,
        260,
        394,
        306,
        460,
        102,
        425,
        439,
        105,
        193,
        61,
        327,
        359,
        480,
        467,
        75,
        294,
        496,
        162,
        19,
        314,
        396,
        352,
        41,
        21,
        93,
        453,
        57,
        136,
        131,
        47,
        171,
        450,
        337,
        367,
        164,
        298,
        38,
        339,
        126,
        402,
        156,
        130,
        442,
        239,
        415,
        62,
        180,
        389,
        36,
        203,
        197,
        237,
        432,
        287,
        50,
        494,
        414,
        20,
        94,
        347,
        420,
        392,
        121,
        256,
        247,
        224,
        194,
        170,
        44,
        452,
        168,
        234,
        444,
        223,
        405,
        369,
        349,
        1,
        364,
        243,
        0,
        228,
        64,
        320,
        481,
        366,
        24,
        52
    ],
    "Nb of functions evaluations": 200010,
    "Computational time in seconds": 1075.979845046997,
    "Stopping criterion in evaluations": 200000
}